p cnf 36 115
-1 2 -3 0
1 -2 -3 0
-1 -2 3 0
1 2 3 0
-7 -5 0
-7 6 0
5 -6 7 0
8 -4 0
8 7 0
4 -7 -8 0
-3 -8 -9 0
3 8 -9 0
-3 8 9 0
3 -8 9 0
10 -5 -11 0
-10 5 -11 0
10 5 11 0
-10 -5 11 0
-11 -5 -12 0
11 5 -12 0
-11 5 12 0
11 -5 12 0
5 -1 -13 0
-5 1 -13 0
5 1 13 0
-5 -1 13 0
-14 -12 0
-14 -13 0
12 13 14 0
9 -14 -15 0
-9 14 -15 0
9 14 15 0
-9 -14 15 0
11 7 -16 0
-11 -7 -16 0
11 -7 16 0
-11 7 16 0
-18 6 0
-18 17 0
-6 -17 18 0
5 18 -19 0
-5 -18 -19 0
5 -18 19 0
-5 18 19 0
-21 -20 0
-21 -18 0
20 18 21 0
-22 19 0
-22 -21 0
-19 21 22 0
-23 16 0
-23 -22 0
-16 22 23 0
-25 20 0
-25 24 0
-20 -24 25 0
-27 -1 0
-27 26 0
1 -26 27 0
-4 -6 -28 0
4 6 -28 0
-4 6 28 0
4 -6 28 0
29 27 0
29 -28 0
-27 28 -29 0
-30 25 0
-30 29 0
-25 -29 30 0
31 -1 0
31 10 0
1 -10 -31 0
-32 10 0
-32 -11 0
-10 11 32 0
33 -31 0
33 32 0
31 -32 -33 0
-34 -30 0
-34 33 0
30 -33 34 0
-35 -23 0
-35 -34 0
23 34 35 0
15 35 -36 0
-15 -35 -36 0
15 -35 36 0
-15 35 36 0
-19 -15 -35 -3 -4 0
-26 -18 33 35 -31 0
4 23 0
20 -4 25 -3 27 -34 0
-20 -33 11 -28 -7 0
15 5 -14 9 0
-5 23 -33 0
-4 -9 7 -5 0
20 -16 35 29 0
1 19 -24 10 0
-16 -30 9 17 24 0
15 -26 36 0
-10 2 4 26 0
33 -11 0
-19 -12 29 -17 -26 0
-27 -25 8 -6 -33 0
27 -8 -6 0
-34 -32 0
-32 7 28 0
-20 -3 -35 14 -6 0
-20 26 -23 9 -35 36 0
-14 -26 -30 -11 0
18 -30 16 -9 0
14 13 19 0
27 19 22 0
9 17 -10 -15 1 12 0
36 0
